38
0 1 290
0 2 794
0 3 628
0 4 850
0 5 806
0 6 881
0 7 972
0 8 991
0 9 437
0 10 1237
0 11 1186
0 12 903
0 13 507
0 14 903
0 15 1178
0 16 1197
0 17 1201
0 18 1205
0 19 901
0 20 760
0 21 1032
0 22 943
0 23 1105
0 24 998
0 25 1011
0 26 1527
0 27 1338
0 28 1058
0 29 1205
0 30 1793
0 31 1337
0 32 1714
0 33 1740
0 34 1498
0 35 1852
0 36 1624
0 37 1858
1 2 512
1 3 341
1 4 564
1 5 515
1 6 591
1 7 682
1 8 701
1 9 457
1 10 946
1 11 896
1 12 622
1 13 483
1 14 624
1 15 891
1 16 909
1 17 914
1 18 918
1 19 660
1 20 811
1 21 779
1 22 717
1 23 847
1 24 774
1 25 792
1 26 1253
1 27 1082
1 28 966
1 29 1045
1 30 1533
1 31 1192
1 32 1472
1 33 1496
1 34 1308
1 35 1598
1 36 1412
1 37 1649
2 3 174
2 4 68
2 5 167
2 6 182
2 7 299
2 8 312
2 9 882
2 10 492
2 11 463
2 12 370
2 13 866
2 14 391
2 15 503
2 16 521
2 17 530
2 18 536
2 19 591
2 20 1200
2 21 621
2 22 678
2 23 651
2 24 721
2 25 748
2 26 923
2 27 851
2 28 1154
2 29 1095
2 30 1245
2 31 1251
2 32 1252
2 33 1266
2 34 1251
2 35 1331
2 36 1288
2 37 1514
3 4 222
3 5 199
3 6 266
3 7 376
3 8 393
3 9 713
3 10 620
3 11 577
3 12 375
3 13 702
3 14 388
3 15 592
3 16 611
3 17 618
3 18 623
3 19 535
3 20 1040
3 21 603
3 22 617
3 23 652
3 24 668
3 25 693
3 26 992
3 27 875
3 28 1040
3 29 1021
3 30 1301
3 31 1177
3 32 1279
3 33 1298
3 34 1216
3 35 1379
3 36 1279
3 37 1511
4 5 139
4 6 127
4 7 238
4 8 249
4 9 912
4 10 423
4 11 394
4 12 329
4 13 889
4 14 350
4 15 436
4 16 454
4 17 464
4 18 469
4 19 564
4 20 1219
4 21 580
4 22 650
4 23 603
4 24 690
4 25 717
4 26 857
4 27 795
4 28 1144
4 29 1068
4 30 1181
4 31 1223
4 32 1193
4 33 1207
4 34 1209
4 35 1268
4 36 1238
4 37 1462
5 6 77
5 7 176
5 8 193
5 9 808
5 10 431
5 11 383
5 12 205
5 13 776
5 14 225
5 15 392
5 16 411
5 17 418
5 18 423
5 19 426
5 20 1099
5 21 455
5 22 513
5 23 488
5 24 555
5 25 582
5 26 796
5 27 697
5 28 1005
5 29 931
5 30 1109
5 31 1086
5 32 1100
5 33 1117
5 34 1084
5 35 1190
5 36 1124
5 37 1352
6 7 119
6 8 133
6 9 881
6 10 356
6 11 311
6 12 206
6 13 847
6 14 229
6 15 331
6 16 351
6 17 358
6 18 364
6 19 451
6 20 1166
6 21 455
6 22 537
6 23 477
6 24 572
6 25 600
6 26 746
6 27 669
6 28 1047
6 29 953
6 30 1065
6 31 1107
6 32 1069
6 33 1084
6 34 1084
6 35 1150
6 36 1111
6 37 1335
7 8 18
7 9 926
7 10 273
7 11 215
7 12 154
7 13 882
7 14 176
7 15 216
7 16 235
7 17 242
7 18 247
7 19 403
7 20 1185
7 21 374
7 22 484
7 23 381
7 24 510
7 25 537
7 26 626
7 27 558
7 28 1016
7 29 890
7 30 946
7 31 1040
7 32 954
7 33 968
7 34 994
7 35 1031
7 36 1008
7 37 1228
8 9 943
8 10 255
8 11 196
8 12 165
8 13 898
8 14 186
8 15 199
8 16 218
8 17 226
8 18 231
8 19 411
8 20 1200
8 21 376
8 22 491
8 23 379
8 24 515
8 25 542
8 26 612
8 27 549
8 28 1024
8 29 894
8 30 933
8 31 1043
8 32 944
8 33 958
8 34 991
8 35 1019
8 36 1003
8 37 1221
9 10 1195
9 11 1130
9 12 800
9 13 88
9 14 789
9 15 1087
9 16 1102
9 17 1102
9 18 1104
9 19 678
9 20 354
9 21 819
9 22 681
9 23 897
9 24 726
9 25 728
9 26 1340
9 27 1106
9 28 635
9 29 826
9 30 1551
9 31 940
9 32 1431
9 33 1461
9 34 1140
9 35 1591
9 36 1292
9 37 1515
10 11 69
10 12 399
10 13 1147
10 14 415
10 15 158
10 16 159
10 17 169
10 18 172
10 19 610
10 20 1439
10 21 525
10 22 675
10 23 490
10 24 682
10 25 706
10 26 503
10 27 559
10 28 1214
10 29 1036
10 30 832
10 31 1172
10 32 899
10 33 904
10 34 1060
10 35 929
10 36 1024
10 37 1216
11 12 332
11 13 1081
11 14 347
11 15 97
11 16 104
11 17 116
11 18 120
11 19 540
11 20 1370
11 21 457
11 22 606
11 23 426
11 24 614
11 25 638
11 26 488
11 27 513
11 28 1145
11 29 971
11 30 818
11 31 1109
11 32 870
11 33 877
11 34 1006
11 35 913
11 36 980
11 37 1179
12 13 748
12 14 23
12 15 289
12 16 305
12 17 306
12 18 310
12 19 252
12 20 1041
12 21 251
12 22 335
12 23 283
12 24 367
12 25 395
12 26 633
12 27 500
12 28 862
12 29 748
12 30 929
12 31 901
12 32 904
12 33 922
12 34 881
12 35 1005
12 36 919
12 37 1148
13 14 735
13 15 1031
13 16 1046
13 17 1045
13 18 1047
13 19 607
13 20 338
13 21 747
13 22 603
13 23 824
13 24 647
13 25 647
13 26 1267
13 27 1029
13 28 554
13 29 738
13 30 1470
13 31 853
13 32 1347
13 33 1377
13 34 1052
13 35 1508
13 36 1204
13 37 1427
14 15 298
14 16 314
14 17 314
14 18 317
14 19 229
14 20 1024
14 21 230
14 22 312
14 23 266
14 24 344
14 25 371
14 26 628
14 27 486
14 28 839
14 29 725
14 30 921
14 31 878
14 32 890
14 33 909
14 34 860
14 35 995
14 36 901
14 37 1130
15 16 19
15 17 27
15 18 33
15 19 466
15 20 1308
15 21 369
15 22 524
15 23 331
15 24 527
15 25 551
15 26 422
15 27 418
15 28 1060
15 29 878
15 30 750
15 31 1014
15 32 786
15 33 795
15 34 908
15 35 840
15 36 885
15 37 1087
16 17 11
16 18 16
16 19 475
16 20 1320
16 21 375
16 22 531
16 23 333
16 24 533
16 25 555
16 26 404
16 27 408
16 28 1066
16 29 879
16 30 733
16 31 1013
16 32 772
16 33 780
16 34 903
16 35 824
16 36 876
16 37 1076
17 18 5
17 19 471
17 20 1317
17 21 368
17 22 526
17 23 325
17 24 526
17 25 548
17 26 394
17 27 397
17 28 1059
17 29 870
17 30 722
17 31 1003
17 32 760
17 33 769
17 34 891
17 35 813
17 36 864
17 37 1064
18 19 472
18 20 1318
18 21 368
18 22 526
18 23 323
18 24 525
18 25 548
18 26 389
18 27 393
18 28 1058
18 29 868
18 30 717
18 31 1001
18 32 755
18 33 764
18 34 888
18 35 808
18 36 860
18 37 1059
19 20 850
19 21 141
19 22 86
19 23 219
19 24 132
19 25 158
19 26 662
19 27 441
19 28 613
19 29 504
19 30 896
19 31 660
19 32 814
19 33 839
19 34 682
19 35 951
19 36 760
19 37 996
20 21 978
20 22 817
20 23 1050
20 24 844
20 25 834
20 26 1475
20 27 1217
20 28 496
20 29 774
20 30 1623
20 31 835
20 32 1467
20 33 1500
20 34 1094
20 35 1641
20 36 1273
20 37 1468
21 22 163
21 23 77
21 24 158
21 25 181
21 26 521
21 27 306
21 28 690
21 29 521
21 30 761
21 31 668
21 32 694
21 33 717
21 34 630
21 35 821
21 36 675
21 37 907
22 23 232
22 24 56
22 25 77
22 26 667
22 27 425
22 28 539
22 29 417
22 30 872
22 31 573
22 32 772
22 33 800
22 34 605
22 35 919
22 36 695
22 37 931
23 24 214
23 25 232
23 26 443
23 27 235
23 28 741
23 29 546
23 30 688
23 31 684
23 32 632
23 33 653
23 34 612
23 35 751
23 36 636
23 37 864
24 25 27
24 26 632
24 27 383
24 28 532
24 29 381
24 30 824
24 31 534
24 32 719
24 33 746
24 34 551
24 35 868
24 36 638
24 37 875
25 26 640
25 27 386
25 28 510
25 29 353
25 30 822
25 31 506
25 32 710
25 33 738
25 34 528
25 35 863
25 36 620
25 37 857
26 27 264
26 28 1099
26 29 834
26 30 330
26 31 921
26 32 415
26 33 412
26 34 709
26 35 425
26 36 605
26 37 752
27 28 834
27 29 576
27 30 455
27 31 676
27 32 404
27 33 422
27 34 508
27 35 516
27 36 467
27 37 674
28 29 296
28 30 1182
28 31 339
28 32 1005
28 33 1039
28 34 604
28 35 1185
28 36 788
28 37 974
29 30 888
29 31 156
29 32 709
29 33 743
29 34 323
29 35 889
29 36 498
29 37 701
30 31 922
30 32 210
30 33 183
30 34 649
30 35 101
30 36 479
30 37 523
31 32 725
31 33 758
31 34 287
31 35 905
31 36 477
31 37 640
32 33 33
32 34 445
32 35 180
32 36 269
32 37 342
33 34 477
33 35 147
33 36 299
33 37 354
34 35 623
34 36 190
34 37 377
35 36 440
35 37 444
36 37 236